(set-logic QF_S)
(declare-fun var0 () String)
(declare-fun var1 () String)
(declare-fun var2 () String)
(declare-fun var3 () String)
(declare-fun var4 () String)
(declare-fun var5 () String)
(declare-fun var6 () String)
(declare-fun var7 () String)
(declare-fun var8 () String)
(declare-fun var9 () String)
(declare-fun var10 () String)
(declare-fun var11 () String)
(declare-fun var12 () String)
(declare-fun var13 () String)
(declare-fun var14 () String)
(declare-fun var15 () String)
(declare-fun var16 () String)
(declare-fun var17 () String)
(declare-fun var18 () String)
(declare-fun var19 () String)
(declare-fun var20 () String)
(declare-fun var21 () String)
(declare-fun var22 () String)
(declare-fun var23 () String)
(declare-fun var24 () String)
(declare-fun var25 () String)
(declare-fun var26 () String)
(declare-fun var27 () String)
(declare-fun var28 () String)
(declare-fun var29 () String)
(declare-fun var30 () String)
(declare-fun var31 () String)
(declare-fun var32 () String)
(declare-fun var33 () String)
(declare-fun var34 () String)
(declare-fun var35 () String)
(declare-fun var36 () String)
(declare-fun var37 () String)
(declare-fun var38 () String)
(declare-fun var39 () String)
(declare-fun var40 () String)
(declare-fun var41 () String)
(declare-fun var42 () String)
(declare-fun var43 () String)
(declare-fun var44 () String)
(declare-fun var45 () String)
(declare-fun var46 () String)
(declare-fun var47 () String)
(declare-fun var48 () String)
(declare-fun var49 () String)
(declare-fun var50 () String)
(declare-fun var51 () String)
(declare-fun var52 () String)
(declare-fun var53 () String)
(declare-fun var54 () String)
(declare-fun var55 () String)
(declare-fun var56 () String)
(declare-fun var57 () String)
(declare-fun var58 () String)
(declare-fun var59 () String)
(declare-fun var60 () String)
(assert (= var0 (str.++ var1 var2)))
(assert (= var2 (str.++ var3 var4)))
(assert (= var4 (str.++ var5 var6)))
(assert (= var6 (str.++ var7 var8)))
(assert (= var8 (str.++ var9 var10)))
(assert (= var10 (str.++ var11 var12)))
(assert (= var12 (str.++ var13 var14)))
(assert (= var14 (str.++ var15 var16)))
(assert (= var16 (str.++ var17 var18)))
(assert (= var18 (str.++ var19 var20)))
(assert (= var20 (str.++ var21 var22)))
(assert (= var22 (str.++ var23 var24)))
(assert (= var24 (str.++ var25 var26)))
(assert (= var26 (str.++ var27 var28)))
(assert (= var28 (str.++ var29 var30)))
(assert (= var30 (str.++ var31 var32)))
(assert (= var32 (str.++ var33 var34)))
(assert (= var34 (str.++ var35 var36)))
(assert (= var36 (str.++ var37 var38)))
(assert (= var38 (str.++ var39 var40)))
(assert (= var40 (str.++ var41 var42)))
(assert (= var42 (str.++ var43 var44)))
(assert (= var44 (str.++ var45 var46)))
(assert (= var46 (str.++ var47 var48)))
(assert (= var48 (str.++ var49 var50)))
(assert (= var50 (str.++ var51 var52)))
(assert (= var52 (str.++ var53 var54)))
(assert (= var54 (str.++ var55 var56)))
(assert (= var56 (str.++ var57 var58)))
(assert (= var58 (str.++ var59 var60)))
(assert (= var0 "solution"))
(assert (= "/" (str.at var37 785)))
(assert (= "}" (str.at var32 778)))
(assert (= "G" (str.at var46 804)))
(assert (= "O" (str.at var24 595)))
(assert (= "/" (str.at var12 617)))
(assert (= "1" (str.at var12 673)))
(assert (= "F" (str.at var25 488)))
(assert (= "?" (str.at var37 652)))
(assert (= "8" (str.at var0 995)))
(assert (= "L" (str.at var0 189)))
(assert (= "T" (str.at var40 843)))
(assert (= "b" (str.at var20 647)))
(assert (= "K" (str.at var57 615)))
(assert (= "g" (str.at var2 444)))
(assert (= "y" (str.at var37 415)))
(assert (= "U" (str.at var5 227)))
(assert (= "N" (str.at var21 218)))
(assert (= "T" (str.at var51 928)))
(assert (= "|" (str.at var59 415)))
(assert (= ">" (str.at var9 2)))
(assert (= "o" (str.at var60 270)))
(assert (= "'" (str.at var49 536)))
(assert (= "D" (str.at var57 864)))
(assert (= "?" (str.at var3 591)))
(assert (= "'" (str.at var2 168)))
(assert (= "a" (str.at var54 770)))
(assert (= "p" (str.at var22 746)))
(assert (= "o" (str.at var34 671)))
(assert (= "l" (str.at var4 744)))
(assert (= "." (str.at var2 708)))
(assert (= "x" (str.at var41 17)))
(assert (= "D" (str.at var43 483)))
(assert (= "u" (str.at var27 585)))
(assert (= """" (str.at var14 305)))
(assert (= "*" (str.at var30 501)))
(assert (= "~" (str.at var7 460)))
(assert (= "]" (str.at var40 106)))
(assert (= "(" (str.at var9 573)))
(assert (= ")" (str.at var48 364)))
(assert (= "$" (str.at var26 505)))
(assert (= ":" (str.at var42 521)))
(assert (= "[" (str.at var16 103)))
(assert (= "R" (str.at var39 859)))
(assert (= ")" (str.at var3 930)))
(assert (= "X" (str.at var21 566)))
(assert (= "r" (str.at var11 340)))
(assert (= "S" (str.at var41 756)))
(assert (= "0" (str.at var12 321)))
(assert (= "3" (str.at var54 5)))
(assert (= "\\" (str.at var8 337)))
(assert (= "e" (str.at var32 369)))
(assert (= "n" (str.at var21 194)))
(assert (= "c" (str.at var44 480)))
(assert (= ";" (str.at var2 417)))
(assert (= "}" (str.at var2 468)))
(assert (= "C" (str.at var42 643)))
(assert (= "c" (str.at var31 386)))
(assert (= "," (str.at var59 491)))
(assert (= "C" (str.at var21 713)))
(assert (= "8" (str.at var52 793)))
(assert (= "8" (str.at var17 47)))
(assert (= "S" (str.at var21 39)))
(assert (= "0" (str.at var28 112)))
(assert (= ">" (str.at var18 64)))
(assert (= "g" (str.at var20 543)))
(assert (= "S" (str.at var16 628)))
(assert (= "U" (str.at var58 466)))
(assert (= "e" (str.at var6 180)))
(assert (= "P" (str.at var60 657)))
(assert (= "(" (str.at var45 415)))
(assert (= "S" (str.at var49 423)))
(assert (= "b" (str.at var54 262)))
(assert (= "F" (str.at var54 109)))
(assert (= "&" (str.at var16 719)))
(assert (= "g" (str.at var7 281)))
(assert (= "L" (str.at var52 186)))
(assert (= "=" (str.at var54 843)))
(assert (= "P" (str.at var21 353)))
(assert (= "y" (str.at var8 232)))
(assert (= "A" (str.at var10 746)))
(assert (= "n" (str.at var47 411)))
(assert (= "<" (str.at var56 656)))
(assert (= "=" (str.at var49 642)))
(assert (= "/" (str.at var37 970)))
(assert (= "*" (str.at var58 912)))
(assert (= "D" (str.at var33 881)))
(assert (= "/" (str.at var58 262)))
(assert (= "W" (str.at var59 904)))
(assert (= "N" (str.at var19 725)))
(assert (= "s" (str.at var39 995)))
(assert (= "u" (str.at var43 633)))
(assert (= "i" (str.at var54 537)))
(assert (= "N" (str.at var14 309)))
(assert (= "?" (str.at var52 325)))
(assert (= "J" (str.at var25 57)))
(assert (= "3" (str.at var32 674)))
(assert (= "4" (str.at var19 102)))
(assert (= "t" (str.at var17 609)))
(assert (= "c" (str.at var6 715)))
(assert (= "f" (str.at var21 755)))
(assert (= "." (str.at var59 75)))
(assert (= "7" (str.at var60 167)))
(assert (= "G" (str.at var34 177)))
(assert (= "%" (str.at var27 631)))
(assert (= "h" (str.at var18 980)))
(assert (= "^" (str.at var8 553)))
(assert (= "9" (str.at var31 576)))
(assert (= "K" (str.at var2 703)))
(assert (= "x" (str.at var12 202)))
(assert (= "5" (str.at var54 304)))
(assert (= "[" (str.at var31 859)))
(assert (= "b" (str.at var20 527)))
(assert (= "R" (str.at var48 475)))
(assert (= "$" (str.at var27 253)))
(assert (= "h" (str.at var43 878)))
(assert (= "f" (str.at var54 524)))
(assert (= "L" (str.at var46 519)))
(assert (= "0" (str.at var14 579)))
(assert (= "`" (str.at var9 645)))
(assert (= "7" (str.at var17 532)))
(assert (= "C" (str.at var42 915)))
(check-sat)